NAME obj
ROWS
 N  OBJ
 G  R0      
 G  R1      
 G  R2      
 G  R3      
 G  R4      
 G  R5      
 G  R6      
 G  R7      
 G  R8      
 G  R9      
 G  R10     
 G  R11     
 G  R12     
 G  R13     
 G  R14     
 G  R15     
 G  R16     
 G  R17     
 G  R18     
 G  R19     
 G  R20     
 G  R21     
 G  R22     
 G  R23     
 G  R24     
 G  R25     
 G  R26     
 G  R27     
 G  R28     
 G  R29     
 G  R30     
 G  R31     
 G  R32     
 G  R33     
 G  R34     
 G  R35     
 G  R36     
 G  R37     
 G  R38     
 G  R39     
 G  R40     
 G  R41     
 G  R42     
 G  R43     
 G  R44     
 G  R45     
 G  R46     
 G  R47     
 G  R48     
 G  R49     
 G  R50     
 G  R51     
 G  R52     
 G  R53     
 G  R54     
 G  R55     
 G  R56     
 G  R57     
 G  R58     
 G  R59     
 G  R60     
 G  R61     
 G  R62     
 G  R63     
 G  R64     
 G  R65     
 G  R66     
 G  R67     
 G  R68     
 G  R69     
 G  R70     
 G  R71     
 G  R72     
 G  R73     
 G  R74     
 G  R75     
 G  R76     
 G  R77     
 G  R78     
 G  R79     
 G  R80     
 G  R81     
 G  R82     
 G  R83     
COLUMNS
    X0        OBJ       1
    X0        R0        1
    X0        R1        1
    X0        R7        1
    X0        R28       1
    X1        OBJ       1
    X1        R0        1
    X1        R2        1
    X1        R8        1
    X1        R29       1
    X2        OBJ       1
    X2        R0        1
    X2        R3        1
    X2        R9        1
    X2        R30       1
    X3        OBJ       1
    X3        R0        1
    X3        R4        1
    X3        R10       1
    X3        R31       1
    X4        OBJ       1
    X4        R0        1
    X4        R5        1
    X4        R11       1
    X4        R32       1
    X5        OBJ       1
    X5        R0        1
    X5        R6        1
    X5        R12       1
    X5        R33       1
    X6        OBJ       1
    X6        R1        1
    X6        R2        1
    X6        R13       1
    X6        R34       1
    X7        OBJ       1
    X7        R1        1
    X7        R3        1
    X7        R14       1
    X7        R35       1
    X8        OBJ       1
    X8        R1        1
    X8        R4        1
    X8        R15       1
    X8        R36       1
    X9        OBJ       1
    X9        R1        1
    X9        R5        1
    X9        R16       1
    X9        R37       1
    X10       OBJ       1
    X10       R1        1
    X10       R6        1
    X10       R17       1
    X10       R38       1
    X11       OBJ       1
    X11       R2        1
    X11       R3        1
    X11       R18       1
    X11       R39       1
    X12       OBJ       1
    X12       R2        1
    X12       R4        1
    X12       R19       1
    X12       R40       1
    X13       OBJ       1
    X13       R2        1
    X13       R5        1
    X13       R20       1
    X13       R41       1
    X14       OBJ       1
    X14       R2        1
    X14       R6        1
    X14       R21       1
    X14       R42       1
    X15       OBJ       1
    X15       R3        1
    X15       R4        1
    X15       R22       1
    X15       R43       1
    X16       OBJ       1
    X16       R3        1
    X16       R5        1
    X16       R23       1
    X16       R44       1
    X17       OBJ       1
    X17       R3        1
    X17       R6        1
    X17       R24       1
    X17       R45       1
    X18       OBJ       1
    X18       R4        1
    X18       R5        1
    X18       R25       1
    X18       R46       1
    X19       OBJ       1
    X19       R4        1
    X19       R6        1
    X19       R26       1
    X19       R47       1
    X20       OBJ       1
    X20       R5        1
    X20       R6        1
    X20       R27       1
    X20       R48       1
    X21       OBJ       1
    X21       R7        1
    X21       R8        1
    X21       R13       1
    X21       R49       1
    X22       OBJ       1
    X22       R7        1
    X22       R9        1
    X22       R14       1
    X22       R50       1
    X23       OBJ       1
    X23       R7        1
    X23       R10       1
    X23       R15       1
    X23       R51       1
    X24       OBJ       1
    X24       R7        1
    X24       R11       1
    X24       R16       1
    X24       R52       1
    X25       OBJ       1
    X25       R7        1
    X25       R12       1
    X25       R17       1
    X25       R53       1
    X26       OBJ       1
    X26       R8        1
    X26       R9        1
    X26       R18       1
    X26       R54       1
    X27       OBJ       1
    X27       R8        1
    X27       R10       1
    X27       R19       1
    X27       R55       1
    X28       OBJ       1
    X28       R8        1
    X28       R11       1
    X28       R20       1
    X28       R56       1
    X29       OBJ       1
    X29       R8        1
    X29       R12       1
    X29       R21       1
    X29       R57       1
    X30       OBJ       1
    X30       R9        1
    X30       R10       1
    X30       R22       1
    X30       R58       1
    X31       OBJ       1
    X31       R9        1
    X31       R11       1
    X31       R23       1
    X31       R59       1
    X32       OBJ       1
    X32       R9        1
    X32       R12       1
    X32       R24       1
    X32       R60       1
    X33       OBJ       1
    X33       R10       1
    X33       R11       1
    X33       R25       1
    X33       R61       1
    X34       OBJ       1
    X34       R10       1
    X34       R12       1
    X34       R26       1
    X34       R62       1
    X35       OBJ       1
    X35       R11       1
    X35       R12       1
    X35       R27       1
    X35       R63       1
    X36       OBJ       1
    X36       R13       1
    X36       R14       1
    X36       R18       1
    X36       R64       1
    X37       OBJ       1
    X37       R13       1
    X37       R15       1
    X37       R19       1
    X37       R65       1
    X38       OBJ       1
    X38       R13       1
    X38       R16       1
    X38       R20       1
    X38       R66       1
    X39       OBJ       1
    X39       R13       1
    X39       R17       1
    X39       R21       1
    X39       R67       1
    X40       OBJ       1
    X40       R14       1
    X40       R15       1
    X40       R22       1
    X40       R68       1
    X41       OBJ       1
    X41       R14       1
    X41       R16       1
    X41       R23       1
    X41       R69       1
    X42       OBJ       1
    X42       R14       1
    X42       R17       1
    X42       R24       1
    X42       R70       1
    X43       OBJ       1
    X43       R15       1
    X43       R16       1
    X43       R25       1
    X43       R71       1
    X44       OBJ       1
    X44       R15       1
    X44       R17       1
    X44       R26       1
    X44       R72       1
    X45       OBJ       1
    X45       R16       1
    X45       R17       1
    X45       R27       1
    X45       R73       1
    X46       OBJ       1
    X46       R18       1
    X46       R19       1
    X46       R22       1
    X46       R74       1
    X47       OBJ       1
    X47       R18       1
    X47       R20       1
    X47       R23       1
    X47       R75       1
    X48       OBJ       1
    X48       R18       1
    X48       R21       1
    X48       R24       1
    X48       R76       1
    X49       OBJ       1
    X49       R19       1
    X49       R20       1
    X49       R25       1
    X49       R77       1
    X50       OBJ       1
    X50       R19       1
    X50       R21       1
    X50       R26       1
    X50       R78       1
    X51       OBJ       1
    X51       R20       1
    X51       R21       1
    X51       R27       1
    X51       R79       1
    X52       OBJ       1
    X52       R22       1
    X52       R23       1
    X52       R25       1
    X52       R80       1
    X53       OBJ       1
    X53       R22       1
    X53       R24       1
    X53       R26       1
    X53       R81       1
    X54       OBJ       1
    X54       R23       1
    X54       R24       1
    X54       R27       1
    X54       R82       1
    X55       OBJ       1
    X55       R25       1
    X55       R26       1
    X55       R27       1
    X55       R83       1
    X56       OBJ       1
    X56       R28       1
    X56       R29       1
    X56       R34       1
    X56       R49       1
    X57       OBJ       1
    X57       R28       1
    X57       R30       1
    X57       R35       1
    X57       R50       1
    X58       OBJ       1
    X58       R28       1
    X58       R31       1
    X58       R36       1
    X58       R51       1
    X59       OBJ       1
    X59       R28       1
    X59       R32       1
    X59       R37       1
    X59       R52       1
    X60       OBJ       1
    X60       R28       1
    X60       R33       1
    X60       R38       1
    X60       R53       1
    X61       OBJ       1
    X61       R29       1
    X61       R30       1
    X61       R39       1
    X61       R54       1
    X62       OBJ       1
    X62       R29       1
    X62       R31       1
    X62       R40       1
    X62       R55       1
    X63       OBJ       1
    X63       R29       1
    X63       R32       1
    X63       R41       1
    X63       R56       1
    X64       OBJ       1
    X64       R29       1
    X64       R33       1
    X64       R42       1
    X64       R57       1
    X65       OBJ       1
    X65       R30       1
    X65       R31       1
    X65       R43       1
    X65       R58       1
    X66       OBJ       1
    X66       R30       1
    X66       R32       1
    X66       R44       1
    X66       R59       1
    X67       OBJ       1
    X67       R30       1
    X67       R33       1
    X67       R45       1
    X67       R60       1
    X68       OBJ       1
    X68       R31       1
    X68       R32       1
    X68       R46       1
    X68       R61       1
    X69       OBJ       1
    X69       R31       1
    X69       R33       1
    X69       R47       1
    X69       R62       1
    X70       OBJ       1
    X70       R32       1
    X70       R33       1
    X70       R48       1
    X70       R63       1
    X71       OBJ       1
    X71       R34       1
    X71       R35       1
    X71       R39       1
    X71       R64       1
    X72       OBJ       1
    X72       R34       1
    X72       R36       1
    X72       R40       1
    X72       R65       1
    X73       OBJ       1
    X73       R34       1
    X73       R37       1
    X73       R41       1
    X73       R66       1
    X74       OBJ       1
    X74       R34       1
    X74       R38       1
    X74       R42       1
    X74       R67       1
    X75       OBJ       1
    X75       R35       1
    X75       R36       1
    X75       R43       1
    X75       R68       1
    X76       OBJ       1
    X76       R35       1
    X76       R37       1
    X76       R44       1
    X76       R69       1
    X77       OBJ       1
    X77       R35       1
    X77       R38       1
    X77       R45       1
    X77       R70       1
    X78       OBJ       1
    X78       R36       1
    X78       R37       1
    X78       R46       1
    X78       R71       1
    X79       OBJ       1
    X79       R36       1
    X79       R38       1
    X79       R47       1
    X79       R72       1
    X80       OBJ       1
    X80       R37       1
    X80       R38       1
    X80       R48       1
    X80       R73       1
    X81       OBJ       1
    X81       R39       1
    X81       R40       1
    X81       R43       1
    X81       R74       1
    X82       OBJ       1
    X82       R39       1
    X82       R41       1
    X82       R44       1
    X82       R75       1
    X83       OBJ       1
    X83       R39       1
    X83       R42       1
    X83       R45       1
    X83       R76       1
    X84       OBJ       1
    X84       R40       1
    X84       R41       1
    X84       R46       1
    X84       R77       1
    X85       OBJ       1
    X85       R40       1
    X85       R42       1
    X85       R47       1
    X85       R78       1
    X86       OBJ       1
    X86       R41       1
    X86       R42       1
    X86       R48       1
    X86       R79       1
    X87       OBJ       1
    X87       R43       1
    X87       R44       1
    X87       R46       1
    X87       R80       1
    X88       OBJ       1
    X88       R43       1
    X88       R45       1
    X88       R47       1
    X88       R81       1
    X89       OBJ       1
    X89       R44       1
    X89       R45       1
    X89       R48       1
    X89       R82       1
    X90       OBJ       1
    X90       R46       1
    X90       R47       1
    X90       R48       1
    X90       R83       1
    X91       OBJ       1
    X91       R49       1
    X91       R50       1
    X91       R54       1
    X91       R64       1
    X92       OBJ       1
    X92       R49       1
    X92       R51       1
    X92       R55       1
    X92       R65       1
    X93       OBJ       1
    X93       R49       1
    X93       R52       1
    X93       R56       1
    X93       R66       1
    X94       OBJ       1
    X94       R49       1
    X94       R53       1
    X94       R57       1
    X94       R67       1
    X95       OBJ       1
    X95       R50       1
    X95       R51       1
    X95       R58       1
    X95       R68       1
    X96       OBJ       1
    X96       R50       1
    X96       R52       1
    X96       R59       1
    X96       R69       1
    X97       OBJ       1
    X97       R50       1
    X97       R53       1
    X97       R60       1
    X97       R70       1
    X98       OBJ       1
    X98       R51       1
    X98       R52       1
    X98       R61       1
    X98       R71       1
    X99       OBJ       1
    X99       R51       1
    X99       R53       1
    X99       R62       1
    X99       R72       1
    X100      OBJ       1
    X100      R52       1
    X100      R53       1
    X100      R63       1
    X100      R73       1
    X101      OBJ       1
    X101      R54       1
    X101      R55       1
    X101      R58       1
    X101      R74       1
    X102      OBJ       1
    X102      R54       1
    X102      R56       1
    X102      R59       1
    X102      R75       1
    X103      OBJ       1
    X103      R54       1
    X103      R57       1
    X103      R60       1
    X103      R76       1
    X104      OBJ       1
    X104      R55       1
    X104      R56       1
    X104      R61       1
    X104      R77       1
    X105      OBJ       1
    X105      R55       1
    X105      R57       1
    X105      R62       1
    X105      R78       1
    X106      OBJ       1
    X106      R56       1
    X106      R57       1
    X106      R63       1
    X106      R79       1
    X107      OBJ       1
    X107      R58       1
    X107      R59       1
    X107      R61       1
    X107      R80       1
    X108      OBJ       1
    X108      R58       1
    X108      R60       1
    X108      R62       1
    X108      R81       1
    X109      OBJ       1
    X109      R59       1
    X109      R60       1
    X109      R63       1
    X109      R82       1
    X110      OBJ       1
    X110      R61       1
    X110      R62       1
    X110      R63       1
    X110      R83       1
    X111      OBJ       1
    X111      R64       1
    X111      R65       1
    X111      R68       1
    X111      R74       1
    X112      OBJ       1
    X112      R64       1
    X112      R66       1
    X112      R69       1
    X112      R75       1
    X113      OBJ       1
    X113      R64       1
    X113      R67       1
    X113      R70       1
    X113      R76       1
    X114      OBJ       1
    X114      R65       1
    X114      R66       1
    X114      R71       1
    X114      R77       1
    X115      OBJ       1
    X115      R65       1
    X115      R67       1
    X115      R72       1
    X115      R78       1
    X116      OBJ       1
    X116      R66       1
    X116      R67       1
    X116      R73       1
    X116      R79       1
    X117      OBJ       1
    X117      R68       1
    X117      R69       1
    X117      R71       1
    X117      R80       1
    X118      OBJ       1
    X118      R68       1
    X118      R70       1
    X118      R72       1
    X118      R81       1
    X119      OBJ       1
    X119      R69       1
    X119      R70       1
    X119      R73       1
    X119      R82       1
    X120      OBJ       1
    X120      R71       1
    X120      R72       1
    X120      R73       1
    X120      R83       1
    X121      OBJ       1
    X121      R74       1
    X121      R75       1
    X121      R77       1
    X121      R80       1
    X122      OBJ       1
    X122      R74       1
    X122      R76       1
    X122      R78       1
    X122      R81       1
    X123      OBJ       1
    X123      R75       1
    X123      R76       1
    X123      R79       1
    X123      R82       1
    X124      OBJ       1
    X124      R77       1
    X124      R78       1
    X124      R79       1
    X124      R83       1
    X125      OBJ       1
    X125      R80       1
    X125      R81       1
    X125      R82       1
    X125      R83       1
RHS
    RHS1      R0        1
    RHS1      R1        1
    RHS1      R2        1
    RHS1      R3        1
    RHS1      R4        1
    RHS1      R5        1
    RHS1      R6        1
    RHS1      R7        1
    RHS1      R8        1
    RHS1      R9        1
    RHS1      R10       1
    RHS1      R11       1
    RHS1      R12       1
    RHS1      R13       1
    RHS1      R14       1
    RHS1      R15       1
    RHS1      R16       1
    RHS1      R17       1
    RHS1      R18       1
    RHS1      R19       1
    RHS1      R20       1
    RHS1      R21       1
    RHS1      R22       1
    RHS1      R23       1
    RHS1      R24       1
    RHS1      R25       1
    RHS1      R26       1
    RHS1      R27       1
    RHS1      R28       1
    RHS1      R29       1
    RHS1      R30       1
    RHS1      R31       1
    RHS1      R32       1
    RHS1      R33       1
    RHS1      R34       1
    RHS1      R35       1
    RHS1      R36       1
    RHS1      R37       1
    RHS1      R38       1
    RHS1      R39       1
    RHS1      R40       1
    RHS1      R41       1
    RHS1      R42       1
    RHS1      R43       1
    RHS1      R44       1
    RHS1      R45       1
    RHS1      R46       1
    RHS1      R47       1
    RHS1      R48       1
    RHS1      R49       1
    RHS1      R50       1
    RHS1      R51       1
    RHS1      R52       1
    RHS1      R53       1
    RHS1      R54       1
    RHS1      R55       1
    RHS1      R56       1
    RHS1      R57       1
    RHS1      R58       1
    RHS1      R59       1
    RHS1      R60       1
    RHS1      R61       1
    RHS1      R62       1
    RHS1      R63       1
    RHS1      R64       1
    RHS1      R65       1
    RHS1      R66       1
    RHS1      R67       1
    RHS1      R68       1
    RHS1      R69       1
    RHS1      R70       1
    RHS1      R71       1
    RHS1      R72       1
    RHS1      R73       1
    RHS1      R74       1
    RHS1      R75       1
    RHS1      R76       1
    RHS1      R77       1
    RHS1      R78       1
    RHS1      R79       1
    RHS1      R80       1
    RHS1      R81       1
    RHS1      R82       1
    RHS1      R83       1
BOUNDS
 UP BND1      X0        1
 UP BND1      X1        1
 UP BND1      X2        1
 UP BND1      X3        1
 UP BND1      X4        1
 UP BND1      X5        1
 UP BND1      X6        1
 UP BND1      X7        1
 UP BND1      X8        1
 UP BND1      X9        1
 UP BND1      X10       1
 UP BND1      X11       1
 UP BND1      X12       1
 UP BND1      X13       1
 UP BND1      X14       1
 UP BND1      X15       1
 UP BND1      X16       1
 UP BND1      X17       1
 UP BND1      X18       1
 UP BND1      X19       1
 UP BND1      X20       1
 UP BND1      X21       1
 UP BND1      X22       1
 UP BND1      X23       1
 UP BND1      X24       1
 UP BND1      X25       1
 UP BND1      X26       1
 UP BND1      X27       1
 UP BND1      X28       1
 UP BND1      X29       1
 UP BND1      X30       1
 UP BND1      X31       1
 UP BND1      X32       1
 UP BND1      X33       1
 UP BND1      X34       1
 UP BND1      X35       1
 UP BND1      X36       1
 UP BND1      X37       1
 UP BND1      X38       1
 UP BND1      X39       1
 UP BND1      X40       1
 UP BND1      X41       1
 UP BND1      X42       1
 UP BND1      X43       1
 UP BND1      X44       1
 UP BND1      X45       1
 UP BND1      X46       1
 UP BND1      X47       1
 UP BND1      X48       1
 UP BND1      X49       1
 UP BND1      X50       1
 UP BND1      X51       1
 UP BND1      X52       1
 UP BND1      X53       1
 UP BND1      X54       1
 UP BND1      X55       1
 UP BND1      X56       1
 UP BND1      X57       1
 UP BND1      X58       1
 UP BND1      X59       1
 UP BND1      X60       1
 UP BND1      X61       1
 UP BND1      X62       1
 UP BND1      X63       1
 UP BND1      X64       1
 UP BND1      X65       1
 UP BND1      X66       1
 UP BND1      X67       1
 UP BND1      X68       1
 UP BND1      X69       1
 UP BND1      X70       1
 UP BND1      X71       1
 UP BND1      X72       1
 UP BND1      X73       1
 UP BND1      X74       1
 UP BND1      X75       1
 UP BND1      X76       1
 UP BND1      X77       1
 UP BND1      X78       1
 UP BND1      X79       1
 UP BND1      X80       1
 UP BND1      X81       1
 UP BND1      X82       1
 UP BND1      X83       1
 UP BND1      X84       1
 UP BND1      X85       1
 UP BND1      X86       1
 UP BND1      X87       1
 UP BND1      X88       1
 UP BND1      X89       1
 UP BND1      X90       1
 UP BND1      X91       1
 UP BND1      X92       1
 UP BND1      X93       1
 UP BND1      X94       1
 UP BND1      X95       1
 UP BND1      X96       1
 UP BND1      X97       1
 UP BND1      X98       1
 UP BND1      X99       1
 UP BND1      X100      1
 UP BND1      X101      1
 UP BND1      X102      1
 UP BND1      X103      1
 UP BND1      X104      1
 UP BND1      X105      1
 UP BND1      X106      1
 UP BND1      X107      1
 UP BND1      X108      1
 UP BND1      X109      1
 UP BND1      X110      1
 UP BND1      X111      1
 UP BND1      X112      1
 UP BND1      X113      1
 UP BND1      X114      1
 UP BND1      X115      1
 UP BND1      X116      1
 UP BND1      X117      1
 UP BND1      X118      1
 UP BND1      X119      1
 UP BND1      X120      1
 UP BND1      X121      1
 UP BND1      X122      1
 UP BND1      X123      1
 UP BND1      X124      1
 UP BND1      X125      1
ENDATA
